1 1 -2 0
1 -1 -3 0
1 1 -4 0
1 -1 -5 0
1 -6 2 0
1 -6 3 0
1 -6 1 0
1 -6 -4 0
1 -7 -8 0
1 -7 -9 0
1 7 2 0
1 7 -10 0
1 -9 -11 0
1 -9 -2 0
1 -9 3 0
1 9 10 0
1 9 4 0
1 3 12 0
1 -3 9 0
1 -3 -7 0
1 3 5 0
1 -5 -13 0
1 -5 14 0
1 5 6 0
1 -5 -3 0
1 -5 -15 0
1 5 -16 0
1 2 17 0
1 -2 6 0
1 2 18 0
1 -2 -19 0
1 2 7 0
1 -4 13 0
1 -4 -20 0
1 4 -9 0
1 -4 19 0
1 4 -21 0
1 -4 7 0
1 -4 1 0
1 16 11 0
1 16 3 0
1 16 -10 0
1 -16 22 0
1 16 -23 0
1 -16 -5 0
1 14 11 0
1 -14 3 0
1 -14 -10 0
1 -14 -16 0
1 -15 -8 0
1 -15 -11 0
1 15 12 0
1 -15 -24 0
1 -15 3 0
1 15 -22 0
1 15 -25 0
1 -15 -21 0
1 15 26 0
1 15 -5 0
1 12 -11 0
1 -12 -24 0
1 12 -27 0
1 12 -10 0
1 -12 -22 0
1 -12 -15 0
1 -12 -26 0
1 -12 5 0
1 22 -28 0
1 -22 -29 0
1 22 -12 0
1 22 -14 0
1 22 -30 0
1 -22 31 0
1 -22 32 0
1 22 15 0
1 -22 16 0
1 22 -7 0
1 22 33 0
1 11 -28 0
1 -11 -29 0
1 -11 12 0
1 11 9 0
1 11 -30 0
1 -11 -31 0
1 -11 -32 0
1 -11 22 0
1 -11 -15 0
1 -11 7 0
1 11 33 0
1 -10 -8 0
1 -10 34 0
1 10 -12 0
1 10 9 0
1 -10 35 0
1 10 -33 0
1 8 -34 0
1 -8 12 0
1 -8 9 0
1 8 30 0
1 -8 10 0
1 8 -35 0
1 8 -19 0
1 -8 15 0
1 -8 7 0
1 -32 -29 0
1 -32 -27 0
1 -32 22 0
1 -32 -19 0
1 32 25 0
1 -29 -11 0
1 -29 13 0
1 -29 -27 0
1 29 32 0
1 29 22 0
1 -29 -26 0
1 31 -28 0
1 -31 24 0
1 -31 -22 0
1 31 26 0
1 28 11 0
1 28 -24 0
1 28 27 0
1 28 31 0
1 28 -22 0
1 -28 25 0
1 -28 26 0
1 -26 28 0
1 -26 12 0
1 26 27 0
1 -26 32 0
1 26 -15 0
1 27 -29 0
1 27 -12 0
1 -27 31 0
1 -27 -32 0
1 -27 15 0
1 -27 26 0
1 -25 -28 0
1 25 -29 0
1 -25 24 0
1 25 36 0
1 -25 -30 0
1 -25 -32 0
1 -25 -33 0
1 24 -28 0
1 -24 -12 0
1 24 36 0
1 24 -32 0
1 24 -15 0
1 24 25 0
1 -24 -37 0
1 24 -33 0
1 23 -38 0
1 -23 -2 0
1 23 -39 0
1 -23 -40 0
1 20 -14 0
1 -20 2 0
1 -20 39 0
1 -20 -23 0
1 21 -38 0
1 -21 -41 0
1 -21 42 0
1 -21 -43 0
1 -21 -39 0
1 21 -40 0
1 -21 44 0
1 -17 -40 0
1 -17 -12 0
1 17 41 0
1 17 39 0
1 -17 -21 0
1 -17 -44 0
1 -17 4 0
1 -41 -40 0
1 41 -17 0
1 41 35 0
1 -41 23 0
1 -40 34 0
1 40 -13 0
1 40 20 0
1 -40 41 0
1 40 35 0
1 -40 21 0
1 40 23 0
1 -38 -39 0
1 38 21 0
1 38 23 0
1 39 17 0
1 -39 -20 0
1 -19 -13 0
1 -19 41 0
1 -19 42 0
1 19 -43 0
1 19 -2 0
1 -19 -10 0
1 -19 -32 0
1 19 40 0
1 -19 -44 0
1 -19 4 0
1 -19 -5 0
1 -13 -8 0
1 13 -41 0
1 -13 -3 0
1 -13 -10 0
1 13 19 0
1 13 5 0
1 -35 8 0
1 -35 34 0
1 -35 -42 0
1 -35 43 0
1 -35 -45 0
1 35 10 0
1 35 31 0
1 35 -40 0
1 35 -46 0
1 -35 47 0
1 -34 48 0
1 -34 -8 0
1 -34 41 0
1 -34 -42 0
1 -34 43 0
1 34 18 0
1 34 45 0
1 34 -10 0
1 34 40 0
1 -34 -46 0
1 -43 -34 0
1 43 -13 0
1 -43 17 0
1 -43 -30 0
1 43 -35 0
1 -43 -21 0
1 43 -33 0
1 44 34 0
1 -44 13 0
1 -44 -43 0
1 44 36 0
1 -44 -30 0
1 44 35 0
1 -44 19 0
1 -44 -21 0
1 44 -37 0
1 -44 33 0
1 -42 34 0
1 -42 -13 0
1 42 35 0
1 42 -19 0
1 42 46 0
1 -46 34 0
1 46 -17 0
1 46 35 0
1 -46 21 0
1 -30 48 0
1 30 8 0
1 -30 -24 0
1 -30 18 0
1 -30 10 0
1 30 45 0
1 30 25 0
1 30 47 0
1 -30 33 0
1 33 8 0
1 33 48 0
1 33 11 0
1 33 -18 0
1 33 30 0
1 -33 -22 0
1 33 -44 0
1 36 -48 0
1 -36 18 0
1 -36 37 0
1 -37 -24 0
1 37 43 0
1 -37 -18 0
1 37 45 0
1 37 25 0
1 37 -47 0
1 37 44 0
1 -45 34 0
1 -45 30 0
1 -45 35 0
1 45 33 0
1 48 34 0
1 48 -30 0
1 -48 -35 0
1 -48 37 0
1 48 33 0
1 -18 37 0
1 18 33 0
1 47 -18 0
1 -47 -30 0
1 -47 35 0
1 47 4 0
1 -47 37 0
1 47 33 0
